
Gurobi 12.0.2 (linux64, C++) logging started Thu Jun 19 08:00:19 2025

Set parameter LogFile to value "log/instances/scenario4/not_correlated_sc4/300/kpfs_5.txt.log"

Gurobi 12.0.2 (linux64, C++) logging started Thu Jun 19 08:01:42 2025

Set parameter LogFile to value "log/instances/scenario4/not_correlated_sc4/300/kpfs_5.txt.log"

Gurobi 12.0.2 (linux64, C++) logging started Thu Jun 19 08:02:53 2025

Set parameter LogFile to value "log/instances/scenario4/not_correlated_sc4/300/kpfs_5.txt.log"

Gurobi 12.0.2 (linux64, C++) logging started Thu Jun 19 08:03:57 2025

Set parameter LogFile to value "log/instances/scenario4/not_correlated_sc4/300/kpfs_5.txt.log"

Gurobi 12.0.2 (linux64, C++) logging started Thu Jun 19 12:38:28 2025

Set parameter WLSAccessID
Set parameter WLSSecret
Set parameter LicenseID to value 2679381
Set parameter LogFile to value "log/instances/scenario4/not_correlated_sc4/300/kpfs_5.txt.log"
Academic license 2679381 - for non-commercial use only - registered to be___@poli.ufrj.br
Set parameter TimeLimit to value 1800
Set parameter Threads to value 1
Gurobi Optimizer version 12.0.2 build v12.0.2rc0 (linux64 - "Ubuntu 24.04.1 LTS")

CPU model: 13th Gen Intel(R) Core(TM) i7-1355U, instruction set [SSE2|AVX|AVX2]
Thread count: 6 physical cores, 12 logical processors, using up to 1 threads

Non-default parameters:
TimeLimit  1800
Threads  1

Academic license 2679381 - for non-commercial use only - registered to be___@poli.ufrj.br
Optimize a model with 902 rows, 1200 columns and 9600 nonzeros
Model fingerprint: 0xe5e3557b
Variable types: 0 continuous, 1200 integer (300 binary)
Coefficient statistics:
  Matrix range     [1e+00, 3e+01]
  Objective range  [1e+00, 3e+01]
  Bounds range     [1e+00, 1e+01]
  RHS range        [1e+00, 5e+02]
Found heuristic solution: objective 378.0000000
Presolve removed 0 rows and 52 columns
Presolve time: 0.18s
Presolved: 902 rows, 1148 columns, 9496 nonzeros
Variable types: 0 continuous, 1148 integer (334 binary)

Root relaxation: objective 9.448656e+02, 455 iterations, 0.08 seconds (0.02 work units)

    Nodes    |    Current Node    |     Objective Bounds      |     Work
 Expl Unexpl |  Obj  Depth IntInf | Incumbent    BestBd   Gap | It/Node Time

     0     0  944.86559    0   98  378.00000  944.86559   150%     -    0s
H    0     0                     496.0000000  944.86559  90.5%     -    0s
H    0     0                     774.0000000  944.86559  22.1%     -    0s
H    0     0                     781.0000000  944.86559  21.0%     -    0s
H    0     0                     798.0000000  944.86559  18.4%     -    0s
H    0     0                     805.0000000  944.86559  17.4%     -    0s
H    0     0                     877.0000000  944.86559  7.74%     -    0s
H    0     0                     891.0000000  944.86559  6.05%     -    0s
     0     0  943.34883    0   97  891.00000  943.34883  5.88%     -    0s
     0     0  943.00595    0   95  891.00000  943.00595  5.84%     -    1s
     0     0  943.00341    0   96  891.00000  943.00341  5.84%     -    1s
     0     0  943.00251    0   96  891.00000  943.00251  5.84%     -    1s
     0     0  942.37707    0   96  891.00000  942.37707  5.77%     -    1s
     0     0  942.36122    0   96  891.00000  942.36122  5.76%     -    1s
     0     0  941.88783    0  101  891.00000  941.88783  5.71%     -    1s
     0     0  941.51270    0  107  891.00000  941.51270  5.67%     -    1s
     0     0  941.44171    0  107  891.00000  941.44171  5.66%     -    1s
     0     0  941.44171    0  108  891.00000  941.44171  5.66%     -    1s
     0     0  941.34981    0  104  891.00000  941.34981  5.65%     -    1s
     0     0  941.21566    0  111  891.00000  941.21566  5.64%     -    1s
     0     0  941.17818    0  112  891.00000  941.17818  5.63%     -    1s
     0     0  941.17818    0  110  891.00000  941.17818  5.63%     -    1s
     0     0  941.15258    0  112  891.00000  941.15258  5.63%     -    2s
     0     0  941.13533    0  115  891.00000  941.13533  5.63%     -    2s
     0     0  941.13533    0  113  891.00000  941.13533  5.63%     -    2s
     0     0  941.13533    0  115  891.00000  941.13533  5.63%     -    2s
     0     0  941.13390    0  115  891.00000  941.13390  5.63%     -    2s
H    0     0                     892.0000000  941.13390  5.51%     -    2s
H    0     0                     893.0000000  941.13390  5.39%     -    2s
H    0     0                     898.0000000  941.13390  4.80%     -    2s
     0     2  941.00000    0  115  898.00000  941.00000  4.79%     -    2s
H   52    52                     901.0000000  937.95699  4.10%  30.2    2s
H   52    46                     906.0000000  937.95699  3.53%  30.2    2s
H   78    65                     907.0000000  937.83426  3.40%  30.0    3s
   190   151  916.87061   16   98  907.00000  935.54850  3.15%  26.7    5s
H  475   198                     913.0000000  932.39714  2.12%  29.3    8s
*  611   169              15     916.0000000  930.42328  1.57%  28.4    9s
   734   181  919.82416    8   95  916.00000  927.41913  1.25%  28.1   10s

Cutting planes:
  Gomory: 1
  MIR: 7
  Zero half: 17

Explored 1161 nodes (31788 simplex iterations) in 13.68 seconds (2.48 work units)
Thread count was 1 (of 12 available processors)

Solution count 10: 916 913 907 ... 877

Optimal solution found (tolerance 1.00e-04)
Best objective 9.160000000000e+02, best bound 9.160000000000e+02, gap 0.0000%
